crystal structure from CrS2 with Hexagin
   1.00000000000000     
     7.9424162438421702    4.5858057590989230    0.0000000000000000
    -7.9424142218368745    4.5858026903317599    0.0000000000000000
     0.0000000000000000    0.0000000000000000   30.0000000000000000
   Cr   S 
     9    18
Direct
 -0.0000439806916702 -0.0000506423299678 -0.0000026907181220
  0.9999118282700258  0.3332442212059599  0.0000004224723510
 -0.0000857112237007  0.6666053179220403  0.0000010087105210
  0.3332937856574603 -0.0000092729797415  0.0000000413844780
  0.3332850673018243  0.3332366451285351  0.0000009548458903
  0.3332799994466799  0.6666115432764110  0.0000018190884863
  0.6666122695517588 -0.0000282401803661 -0.0000017589106774
  0.6665767592276286  0.3332483975970008  0.0000012014287405
  0.6666134943416958  0.6665888484691656 -0.0000006644871987
  0.1110620418592147  0.2221574729801136  0.9507749298753051
  0.2221593102542463  0.1110549841735372  0.0492266848585673
  0.1110432284566741  0.5554817518248700  0.9507748393118559
  0.2221638890602198  0.4443701975190334  0.0492190824531757
  0.1110503313860911  0.8888219673030751  0.9507746498259881
  0.2221563487374560  0.7777286831399485  0.0492227276408947
  0.4443875891438152  0.2221626894607620  0.9507764556636569
  0.5554832893792769  0.1110534282313097  0.0492246988430061
  0.4443833215853109  0.5554725395339329  0.9507829643632557
  0.5554817030940086  0.4443715581330120  0.0492186512249326
  0.4443823357623479  0.8888253978142128  0.9507777393460625
  0.5554974084365394  0.7777155721825693  0.0492194412465670
  0.7776984821652903  0.2221527672528232  0.9507730270487409
  0.8888115837335739  0.1110343168359962  0.0492281913902252
  0.7776975170443565  0.5554664107667503  0.9507780775489085
  0.8887955536999494  0.4443713010294535  0.0492226140454538
  0.7777072942023753  0.8888128298887287  0.9507788504652513
  0.8888097135545302  0.7777137672984068  0.0492259402336758
 
  0.00000000E+00  0.00000000E+00  0.00000000E+00
  0.00000000E+00  0.00000000E+00  0.00000000E+00
  0.00000000E+00  0.00000000E+00  0.00000000E+00
  0.00000000E+00  0.00000000E+00  0.00000000E+00
  0.00000000E+00  0.00000000E+00  0.00000000E+00
  0.00000000E+00  0.00000000E+00  0.00000000E+00
  0.00000000E+00  0.00000000E+00  0.00000000E+00
  0.00000000E+00  0.00000000E+00  0.00000000E+00
  0.00000000E+00  0.00000000E+00  0.00000000E+00
  0.00000000E+00  0.00000000E+00  0.00000000E+00
  0.00000000E+00  0.00000000E+00  0.00000000E+00
  0.00000000E+00  0.00000000E+00  0.00000000E+00
  0.00000000E+00  0.00000000E+00  0.00000000E+00
  0.00000000E+00  0.00000000E+00  0.00000000E+00
  0.00000000E+00  0.00000000E+00  0.00000000E+00
  0.00000000E+00  0.00000000E+00  0.00000000E+00
  0.00000000E+00  0.00000000E+00  0.00000000E+00
  0.00000000E+00  0.00000000E+00  0.00000000E+00
  0.00000000E+00  0.00000000E+00  0.00000000E+00
  0.00000000E+00  0.00000000E+00  0.00000000E+00
  0.00000000E+00  0.00000000E+00  0.00000000E+00
  0.00000000E+00  0.00000000E+00  0.00000000E+00
  0.00000000E+00  0.00000000E+00  0.00000000E+00
  0.00000000E+00  0.00000000E+00  0.00000000E+00
  0.00000000E+00  0.00000000E+00  0.00000000E+00
  0.00000000E+00  0.00000000E+00  0.00000000E+00
  0.00000000E+00  0.00000000E+00  0.00000000E+00
